n1 = 10;
adjacent1 = [| 0, 0, 1, 0, 0, 0, 1, 0, 0, 0
| 0, 0, 1, 1, 0, 0, 0, 0, 0, 0
| 1, 1, 0, 0, 1, 0, 0, 0, 0, 0
| 0, 1, 0, 0, 0, 0, 0, 1, 0, 0
| 0, 0, 1, 0, 0, 0, 0, 0, 0, 0
| 0, 0, 0, 0, 0, 0, 0, 1, 1, 1
| 1, 0, 0, 0, 0, 0, 0, 0, 0, 1
| 0, 0, 0, 1, 0, 1, 0, 0, 0, 0
| 0, 0, 0, 0, 0, 1, 0, 0, 0, 0
| 0, 0, 0, 0, 0, 1, 1, 0, 0, 0 |];
n2 = 10;
adjacent2 = [| 0, 0, 1, 0, 0, 0, 1, 0, 0, 0
| 0, 0, 1, 1, 0, 0, 0, 0, 0, 0
| 1, 1, 0, 0, 1, 0, 0, 0, 0, 0
| 0, 1, 0, 0, 0, 0, 0, 1, 0, 0
| 0, 0, 1, 0, 0, 0, 0, 0, 0, 0
| 0, 0, 0, 0, 0, 0, 0, 1, 1, 1
| 1, 0, 0, 0, 0, 0, 0, 0, 0, 1
| 0, 0, 0, 1, 0, 1, 0, 0, 0, 0
| 0, 0, 0, 0, 0, 1, 0, 0, 0, 0
| 0, 0, 0, 0, 0, 1, 1, 0, 0, 0 |];
vertexDeletionCost = [45, 45, 45, 45, 45, 45, 45, 45, 45, 45];
vertexInsertionCost = [45, 45, 45, 45, 45, 45, 45, 45, 45, 45];
vertexSubstitutionCost = [| 12.020815280171307, 90, 90, 90, 90, 90, 90, 90, 90, 90
| 90, 9.192388155425117, 90, 90, 90, 90, 90, 90, 90, 90
| 90, 90, 7.7781745930520225, 90, 90, 90, 90, 90, 90, 90
| 90, 90, 90, 7.0710678118654755, 90, 90, 90, 60.45246066125018, 90, 62.24146527838174
| 90, 90, 90, 90, 7.0, 90, 90, 90, 90, 90
| 90, 90, 90, 90, 90, 2.8284271247461903, 90, 90, 90, 90
| 90, 90, 90, 90, 90, 90, 8.94427190999916, 90, 90, 90
| 90, 90, 90, 55.339859052946636, 90, 90, 90, 1.4142135623730951, 90, 2.5495097567963922
| 90, 90, 90, 90, 90, 90, 90, 90, 7.7781745930520225, 90
| 90, 90, 90, 58.33095233235953, 90, 90, 90, 5.385164807134504, 90, 7.106335201775948 |];
edgeDeletionCost = [| 0.0, 0.0, 7.5, 0.0, 0.0, 0.0, 7.5, 0.0, 0.0, 0.0
| 0.0, 0.0, 7.5, 7.5, 0.0, 0.0, 0.0, 0.0, 0.0, 0.0
| 7.5, 7.5, 0.0, 0.0, 7.5, 0.0, 0.0, 0.0, 0.0, 0.0
| 0.0, 7.5, 0.0, 0.0, 0.0, 0.0, 0.0, 7.5, 0.0, 0.0
| 0.0, 0.0, 7.5, 0.0, 0.0, 0.0, 0.0, 0.0, 0.0, 0.0
| 0.0, 0.0, 0.0, 0.0, 0.0, 0.0, 0.0, 7.5, 7.5, 7.5
| 7.5, 0.0, 0.0, 0.0, 0.0, 0.0, 0.0, 0.0, 0.0, 7.5
| 0.0, 0.0, 0.0, 7.5, 0.0, 7.5, 0.0, 0.0, 0.0, 0.0
| 0.0, 0.0, 0.0, 0.0, 0.0, 7.5, 0.0, 0.0, 0.0, 0.0
| 0.0, 0.0, 0.0, 0.0, 0.0, 7.5, 7.5, 0.0, 0.0, 0.0 |];
edgeInsertionCost = [| 0.0, 0.0, 7.5, 0.0, 0.0, 0.0, 7.5, 0.0, 0.0, 0.0
| 0.0, 0.0, 7.5, 7.5, 0.0, 0.0, 0.0, 0.0, 0.0, 0.0
| 7.5, 7.5, 0.0, 0.0, 7.5, 0.0, 0.0, 0.0, 0.0, 0.0
| 0.0, 7.5, 0.0, 0.0, 0.0, 0.0, 0.0, 7.5, 0.0, 0.0
| 0.0, 0.0, 7.5, 0.0, 0.0, 0.0, 0.0, 0.0, 0.0, 0.0
| 0.0, 0.0, 0.0, 0.0, 0.0, 0.0, 0.0, 7.5, 7.5, 7.5
| 7.5, 0.0, 0.0, 0.0, 0.0, 0.0, 0.0, 0.0, 0.0, 7.5
| 0.0, 0.0, 0.0, 7.5, 0.0, 7.5, 0.0, 0.0, 0.0, 0.0
| 0.0, 0.0, 0.0, 0.0, 0.0, 7.5, 0.0, 0.0, 0.0, 0.0
| 0.0, 0.0, 0.0, 0.0, 0.0, 7.5, 7.5, 0.0, 0.0, 0.0 |];
edgeSubstitutionCost = array4d(1..n1, 1..n1, 1..n2, 1..n2, [0, 0, 7.5, 0, 0, 0, 7.5, 0, 0, 0, 0, 0, 7.5, 7.5, 0, 0, 0, 0, 0, 0, 7.5, 7.5, 0, 0, 7.5, 0, 0, 0, 0, 0, 0, 7.5, 0, 0, 0, 0, 0, 7.5, 0, 0, 0, 0, 7.5, 0, 0, 0, 0, 0, 0, 0, 0, 0, 0, 0, 0, 0, 0, 7.5, 7.5, 7.5, 7.5, 0, 0, 0, 0, 0, 0, 0, 0, 7.5, 0, 0, 0, 7.5, 0, 7.5, 0, 0, 0, 0, 0, 0, 0, 0, 0, 7.5, 0, 0, 0, 0, 0, 0, 0, 0, 0, 7.5, 7.5, 0, 0, 0, 0, 0, 7.5, 0, 0, 0, 7.5, 0, 0, 0, 0, 0, 7.5, 7.5, 0, 0, 0, 0, 0, 0, 7.5, 7.5, 0, 0, 7.5, 0, 0, 0, 0, 0, 0, 7.5, 0, 0, 0, 0, 0, 7.5, 0, 0, 0, 0, 7.5, 0, 0, 0, 0, 0, 0, 0, 0, 0, 0, 0, 0, 0, 0, 7.5, 7.5, 7.5, 7.5, 0, 0, 0, 0, 0, 0, 0, 0, 7.5, 0, 0, 0, 7.5, 0, 7.5, 0, 0, 0, 0, 0, 0, 0, 0, 0, 7.5, 0, 0, 0, 0, 0, 0, 0, 0, 0, 7.5, 7.5, 0, 0, 0, 7.5, 7.5, 0.0, 7.5, 7.5, 7.5, 0.0, 7.5, 7.5, 7.5, 7.5, 7.5, 0.0, 0.0, 7.5, 7.5, 7.5, 7.5, 7.5, 7.5, 0.0, 0.0, 7.5, 7.5, 0.0, 7.5, 7.5, 7.5, 7.5, 7.5, 7.5, 0.0, 7.5, 7.5, 7.5, 7.5, 7.5, 0.0, 7.5, 7.5, 7.5, 7.5, 0.0, 7.5, 7.5, 7.5, 7.5, 7.5, 7.5, 7.5, 7.5, 7.5, 7.5, 7.5, 7.5, 7.5, 7.5, 0.0, 0.0, 0.0, 0.0, 7.5, 7.5, 7.5, 7.5, 7.5, 7.5, 7.5, 7.5, 0.0, 7.5, 7.5, 7.5, 0.0, 7.5, 0.0, 7.5, 7.5, 7.5, 7.5, 7.5, 7.5, 7.5, 7.5, 7.5, 0.0, 7.5, 7.5, 7.5, 7.5, 7.5, 7.5, 7.5, 7.5, 7.5, 0.0, 0.0, 7.5, 7.5, 7.5, 0, 0, 7.5, 0, 0, 0, 7.5, 0, 0, 0, 0, 0, 7.5, 7.5, 0, 0, 0, 0, 0, 0, 7.5, 7.5, 0, 0, 7.5, 0, 0, 0, 0, 0, 0, 7.5, 0, 0, 0, 0, 0, 7.5, 0, 0, 0, 0, 7.5, 0, 0, 0, 0, 0, 0, 0, 0, 0, 0, 0, 0, 0, 0, 7.5, 7.5, 7.5, 7.5, 0, 0, 0, 0, 0, 0, 0, 0, 7.5, 0, 0, 0, 7.5, 0, 7.5, 0, 0, 0, 0, 0, 0, 0, 0, 0, 7.5, 0, 0, 0, 0, 0, 0, 0, 0, 0, 7.5, 7.5, 0, 0, 0, 0, 0, 7.5, 0, 0, 0, 7.5, 0, 0, 0, 0, 0, 7.5, 7.5, 0, 0, 0, 0, 0, 0, 7.5, 7.5, 0, 0, 7.5, 0, 0, 0, 0, 0, 0, 7.5, 0, 0, 0, 0, 0, 7.5, 0, 0, 0, 0, 7.5, 0, 0, 0, 0, 0, 0, 0, 0, 0, 0, 0, 0, 0, 0, 7.5, 7.5, 7.5, 7.5, 0, 0, 0, 0, 0, 0, 0, 0, 7.5, 0, 0, 0, 7.5, 0, 7.5, 0, 0, 0, 0, 0, 0, 0, 0, 0, 7.5, 0, 0, 0, 0, 0, 0, 0, 0, 0, 7.5, 7.5, 0, 0, 0, 0, 0, 7.5, 0, 0, 0, 7.5, 0, 0, 0, 0, 0, 7.5, 7.5, 0, 0, 0, 0, 0, 0, 7.5, 7.5, 0, 0, 7.5, 0, 0, 0, 0, 0, 0, 7.5, 0, 0, 0, 0, 0, 7.5, 0, 0, 0, 0, 7.5, 0, 0, 0, 0, 0, 0, 0, 0, 0, 0, 0, 0, 0, 0, 7.5, 7.5, 7.5, 7.5, 0, 0, 0, 0, 0, 0, 0, 0, 7.5, 0, 0, 0, 7.5, 0, 7.5, 0, 0, 0, 0, 0, 0, 0, 0, 0, 7.5, 0, 0, 0, 0, 0, 0, 0, 0, 0, 7.5, 7.5, 0, 0, 0, 7.5, 7.5, 0.0, 7.5, 7.5, 7.5, 0.0, 7.5, 7.5, 7.5, 7.5, 7.5, 0.0, 0.0, 7.5, 7.5, 7.5, 7.5, 7.5, 7.5, 0.0, 0.0, 7.5, 7.5, 0.0, 7.5, 7.5, 7.5, 7.5, 7.5, 7.5, 0.0, 7.5, 7.5, 7.5, 7.5, 7.5, 0.0, 7.5, 7.5, 7.5, 7.5, 0.0, 7.5, 7.5, 7.5, 7.5, 7.5, 7.5, 7.5, 7.5, 7.5, 7.5, 7.5, 7.5, 7.5, 7.5, 0.0, 0.0, 0.0, 0.0, 7.5, 7.5, 7.5, 7.5, 7.5, 7.5, 7.5, 7.5, 0.0, 7.5, 7.5, 7.5, 0.0, 7.5, 0.0, 7.5, 7.5, 7.5, 7.5, 7.5, 7.5, 7.5, 7.5, 7.5, 0.0, 7.5, 7.5, 7.5, 7.5, 7.5, 7.5, 7.5, 7.5, 7.5, 0.0, 0.0, 7.5, 7.5, 7.5, 0, 0, 7.5, 0, 0, 0, 7.5, 0, 0, 0, 0, 0, 7.5, 7.5, 0, 0, 0, 0, 0, 0, 7.5, 7.5, 0, 0, 7.5, 0, 0, 0, 0, 0, 0, 7.5, 0, 0, 0, 0, 0, 7.5, 0, 0, 0, 0, 7.5, 0, 0, 0, 0, 0, 0, 0, 0, 0, 0, 0, 0, 0, 0, 7.5, 7.5, 7.5, 7.5, 0, 0, 0, 0, 0, 0, 0, 0, 7.5, 0, 0, 0, 7.5, 0, 7.5, 0, 0, 0, 0, 0, 0, 0, 0, 0, 7.5, 0, 0, 0, 0, 0, 0, 0, 0, 0, 7.5, 7.5, 0, 0, 0, 0, 0, 7.5, 0, 0, 0, 7.5, 0, 0, 0, 0, 0, 7.5, 7.5, 0, 0, 0, 0, 0, 0, 7.5, 7.5, 0, 0, 7.5, 0, 0, 0, 0, 0, 0, 7.5, 0, 0, 0, 0, 0, 7.5, 0, 0, 0, 0, 7.5, 0, 0, 0, 0, 0, 0, 0, 0, 0, 0, 0, 0, 0, 0, 7.5, 7.5, 7.5, 7.5, 0, 0, 0, 0, 0, 0, 0, 0, 7.5, 0, 0, 0, 7.5, 0, 7.5, 0, 0, 0, 0, 0, 0, 0, 0, 0, 7.5, 0, 0, 0, 0, 0, 0, 0, 0, 0, 7.5, 7.5, 0, 0, 0, 0, 0, 7.5, 0, 0, 0, 7.5, 0, 0, 0, 0, 0, 7.5, 7.5, 0, 0, 0, 0, 0, 0, 7.5, 7.5, 0, 0, 7.5, 0, 0, 0, 0, 0, 0, 7.5, 0, 0, 0, 0, 0, 7.5, 0, 0, 0, 0, 7.5, 0, 0, 0, 0, 0, 0, 0, 0, 0, 0, 0, 0, 0, 0, 7.5, 7.5, 7.5, 7.5, 0, 0, 0, 0, 0, 0, 0, 0, 7.5, 0, 0, 0, 7.5, 0, 7.5, 0, 0, 0, 0, 0, 0, 0, 0, 0, 7.5, 0, 0, 0, 0, 0, 0, 0, 0, 0, 7.5, 7.5, 0, 0, 0, 0, 0, 7.5, 0, 0, 0, 7.5, 0, 0, 0, 0, 0, 7.5, 7.5, 0, 0, 0, 0, 0, 0, 7.5, 7.5, 0, 0, 7.5, 0, 0, 0, 0, 0, 0, 7.5, 0, 0, 0, 0, 0, 7.5, 0, 0, 0, 0, 7.5, 0, 0, 0, 0, 0, 0, 0, 0, 0, 0, 0, 0, 0, 0, 7.5, 7.5, 7.5, 7.5, 0, 0, 0, 0, 0, 0, 0, 0, 7.5, 0, 0, 0, 7.5, 0, 7.5, 0, 0, 0, 0, 0, 0, 0, 0, 0, 7.5, 0, 0, 0, 0, 0, 0, 0, 0, 0, 7.5, 7.5, 0, 0, 0, 0, 0, 7.5, 0, 0, 0, 7.5, 0, 0, 0, 0, 0, 7.5, 7.5, 0, 0, 0, 0, 0, 0, 7.5, 7.5, 0, 0, 7.5, 0, 0, 0, 0, 0, 0, 7.5, 0, 0, 0, 0, 0, 7.5, 0, 0, 0, 0, 7.5, 0, 0, 0, 0, 0, 0, 0, 0, 0, 0, 0, 0, 0, 0, 7.5, 7.5, 7.5, 7.5, 0, 0, 0, 0, 0, 0, 0, 0, 7.5, 0, 0, 0, 7.5, 0, 7.5, 0, 0, 0, 0, 0, 0, 0, 0, 0, 7.5, 0, 0, 0, 0, 0, 0, 0, 0, 0, 7.5, 7.5, 0, 0, 0, 7.5, 7.5, 0.0, 7.5, 7.5, 7.5, 0.0, 7.5, 7.5, 7.5, 7.5, 7.5, 0.0, 0.0, 7.5, 7.5, 7.5, 7.5, 7.5, 7.5, 0.0, 0.0, 7.5, 7.5, 0.0, 7.5, 7.5, 7.5, 7.5, 7.5, 7.5, 0.0, 7.5, 7.5, 7.5, 7.5, 7.5, 0.0, 7.5, 7.5, 7.5, 7.5, 0.0, 7.5, 7.5, 7.5, 7.5, 7.5, 7.5, 7.5, 7.5, 7.5, 7.5, 7.5, 7.5, 7.5, 7.5, 0.0, 0.0, 0.0, 0.0, 7.5, 7.5, 7.5, 7.5, 7.5, 7.5, 7.5, 7.5, 0.0, 7.5, 7.5, 7.5, 0.0, 7.5, 0.0, 7.5, 7.5, 7.5, 7.5, 7.5, 7.5, 7.5, 7.5, 7.5, 0.0, 7.5, 7.5, 7.5, 7.5, 7.5, 7.5, 7.5, 7.5, 7.5, 0.0, 0.0, 7.5, 7.5, 7.5, 7.5, 7.5, 0.0, 7.5, 7.5, 7.5, 0.0, 7.5, 7.5, 7.5, 7.5, 7.5, 0.0, 0.0, 7.5, 7.5, 7.5, 7.5, 7.5, 7.5, 0.0, 0.0, 7.5, 7.5, 0.0, 7.5, 7.5, 7.5, 7.5, 7.5, 7.5, 0.0, 7.5, 7.5, 7.5, 7.5, 7.5, 0.0, 7.5, 7.5, 7.5, 7.5, 0.0, 7.5, 7.5, 7.5, 7.5, 7.5, 7.5, 7.5, 7.5, 7.5, 7.5, 7.5, 7.5, 7.5, 7.5, 0.0, 0.0, 0.0, 0.0, 7.5, 7.5, 7.5, 7.5, 7.5, 7.5, 7.5, 7.5, 0.0, 7.5, 7.5, 7.5, 0.0, 7.5, 0.0, 7.5, 7.5, 7.5, 7.5, 7.5, 7.5, 7.5, 7.5, 7.5, 0.0, 7.5, 7.5, 7.5, 7.5, 7.5, 7.5, 7.5, 7.5, 7.5, 0.0, 0.0, 7.5, 7.5, 7.5, 0, 0, 7.5, 0, 0, 0, 7.5, 0, 0, 0, 0, 0, 7.5, 7.5, 0, 0, 0, 0, 0, 0, 7.5, 7.5, 0, 0, 7.5, 0, 0, 0, 0, 0, 0, 7.5, 0, 0, 0, 0, 0, 7.5, 0, 0, 0, 0, 7.5, 0, 0, 0, 0, 0, 0, 0, 0, 0, 0, 0, 0, 0, 0, 7.5, 7.5, 7.5, 7.5, 0, 0, 0, 0, 0, 0, 0, 0, 7.5, 0, 0, 0, 7.5, 0, 7.5, 0, 0, 0, 0, 0, 0, 0, 0, 0, 7.5, 0, 0, 0, 0, 0, 0, 0, 0, 0, 7.5, 7.5, 0, 0, 0, 0, 0, 7.5, 0, 0, 0, 7.5, 0, 0, 0, 0, 0, 7.5, 7.5, 0, 0, 0, 0, 0, 0, 7.5, 7.5, 0, 0, 7.5, 0, 0, 0, 0, 0, 0, 7.5, 0, 0, 0, 0, 0, 7.5, 0, 0, 0, 0, 7.5, 0, 0, 0, 0, 0, 0, 0, 0, 0, 0, 0, 0, 0, 0, 7.5, 7.5, 7.5, 7.5, 0, 0, 0, 0, 0, 0, 0, 0, 7.5, 0, 0, 0, 7.5, 0, 7.5, 0, 0, 0, 0, 0, 0, 0, 0, 0, 7.5, 0, 0, 0, 0, 0, 0, 0, 0, 0, 7.5, 7.5, 0, 0, 0, 0, 0, 7.5, 0, 0, 0, 7.5, 0, 0, 0, 0, 0, 7.5, 7.5, 0, 0, 0, 0, 0, 0, 7.5, 7.5, 0, 0, 7.5, 0, 0, 0, 0, 0, 0, 7.5, 0, 0, 0, 0, 0, 7.5, 0, 0, 0, 0, 7.5, 0, 0, 0, 0, 0, 0, 0, 0, 0, 0, 0, 0, 0, 0, 7.5, 7.5, 7.5, 7.5, 0, 0, 0, 0, 0, 0, 0, 0, 7.5, 0, 0, 0, 7.5, 0, 7.5, 0, 0, 0, 0, 0, 0, 0, 0, 0, 7.5, 0, 0, 0, 0, 0, 0, 0, 0, 0, 7.5, 7.5, 0, 0, 0, 0, 0, 7.5, 0, 0, 0, 7.5, 0, 0, 0, 0, 0, 7.5, 7.5, 0, 0, 0, 0, 0, 0, 7.5, 7.5, 0, 0, 7.5, 0, 0, 0, 0, 0, 0, 7.5, 0, 0, 0, 0, 0, 7.5, 0, 0, 0, 0, 7.5, 0, 0, 0, 0, 0, 0, 0, 0, 0, 0, 0, 0, 0, 0, 7.5, 7.5, 7.5, 7.5, 0, 0, 0, 0, 0, 0, 0, 0, 7.5, 0, 0, 0, 7.5, 0, 7.5, 0, 0, 0, 0, 0, 0, 0, 0, 0, 7.5, 0, 0, 0, 0, 0, 0, 0, 0, 0, 7.5, 7.5, 0, 0, 0, 0, 0, 7.5, 0, 0, 0, 7.5, 0, 0, 0, 0, 0, 7.5, 7.5, 0, 0, 0, 0, 0, 0, 7.5, 7.5, 0, 0, 7.5, 0, 0, 0, 0, 0, 0, 7.5, 0, 0, 0, 0, 0, 7.5, 0, 0, 0, 0, 7.5, 0, 0, 0, 0, 0, 0, 0, 0, 0, 0, 0, 0, 0, 0, 7.5, 7.5, 7.5, 7.5, 0, 0, 0, 0, 0, 0, 0, 0, 7.5, 0, 0, 0, 7.5, 0, 7.5, 0, 0, 0, 0, 0, 0, 0, 0, 0, 7.5, 0, 0, 0, 0, 0, 0, 0, 0, 0, 7.5, 7.5, 0, 0, 0, 0, 0, 7.5, 0, 0, 0, 7.5, 0, 0, 0, 0, 0, 7.5, 7.5, 0, 0, 0, 0, 0, 0, 7.5, 7.5, 0, 0, 7.5, 0, 0, 0, 0, 0, 0, 7.5, 0, 0, 0, 0, 0, 7.5, 0, 0, 0, 0, 7.5, 0, 0, 0, 0, 0, 0, 0, 0, 0, 0, 0, 0, 0, 0, 7.5, 7.5, 7.5, 7.5, 0, 0, 0, 0, 0, 0, 0, 0, 7.5, 0, 0, 0, 7.5, 0, 7.5, 0, 0, 0, 0, 0, 0, 0, 0, 0, 7.5, 0, 0, 0, 0, 0, 0, 0, 0, 0, 7.5, 7.5, 0, 0, 0, 7.5, 7.5, 0.0, 7.5, 7.5, 7.5, 0.0, 7.5, 7.5, 7.5, 7.5, 7.5, 0.0, 0.0, 7.5, 7.5, 7.5, 7.5, 7.5, 7.5, 0.0, 0.0, 7.5, 7.5, 0.0, 7.5, 7.5, 7.5, 7.5, 7.5, 7.5, 0.0, 7.5, 7.5, 7.5, 7.5, 7.5, 0.0, 7.5, 7.5, 7.5, 7.5, 0.0, 7.5, 7.5, 7.5, 7.5, 7.5, 7.5, 7.5, 7.5, 7.5, 7.5, 7.5, 7.5, 7.5, 7.5, 0.0, 0.0, 0.0, 0.0, 7.5, 7.5, 7.5, 7.5, 7.5, 7.5, 7.5, 7.5, 0.0, 7.5, 7.5, 7.5, 0.0, 7.5, 0.0, 7.5, 7.5, 7.5, 7.5, 7.5, 7.5, 7.5, 7.5, 7.5, 0.0, 7.5, 7.5, 7.5, 7.5, 7.5, 7.5, 7.5, 7.5, 7.5, 0.0, 0.0, 7.5, 7.5, 7.5, 7.5, 7.5, 0.0, 7.5, 7.5, 7.5, 0.0, 7.5, 7.5, 7.5, 7.5, 7.5, 0.0, 0.0, 7.5, 7.5, 7.5, 7.5, 7.5, 7.5, 0.0, 0.0, 7.5, 7.5, 0.0, 7.5, 7.5, 7.5, 7.5, 7.5, 7.5, 0.0, 7.5, 7.5, 7.5, 7.5, 7.5, 0.0, 7.5, 7.5, 7.5, 7.5, 0.0, 7.5, 7.5, 7.5, 7.5, 7.5, 7.5, 7.5, 7.5, 7.5, 7.5, 7.5, 7.5, 7.5, 7.5, 0.0, 0.0, 0.0, 0.0, 7.5, 7.5, 7.5, 7.5, 7.5, 7.5, 7.5, 7.5, 0.0, 7.5, 7.5, 7.5, 0.0, 7.5, 0.0, 7.5, 7.5, 7.5, 7.5, 7.5, 7.5, 7.5, 7.5, 7.5, 0.0, 7.5, 7.5, 7.5, 7.5, 7.5, 7.5, 7.5, 7.5, 7.5, 0.0, 0.0, 7.5, 7.5, 7.5, 0, 0, 7.5, 0, 0, 0, 7.5, 0, 0, 0, 0, 0, 7.5, 7.5, 0, 0, 0, 0, 0, 0, 7.5, 7.5, 0, 0, 7.5, 0, 0, 0, 0, 0, 0, 7.5, 0, 0, 0, 0, 0, 7.5, 0, 0, 0, 0, 7.5, 0, 0, 0, 0, 0, 0, 0, 0, 0, 0, 0, 0, 0, 0, 7.5, 7.5, 7.5, 7.5, 0, 0, 0, 0, 0, 0, 0, 0, 7.5, 0, 0, 0, 7.5, 0, 7.5, 0, 0, 0, 0, 0, 0, 0, 0, 0, 7.5, 0, 0, 0, 0, 0, 0, 0, 0, 0, 7.5, 7.5, 0, 0, 0, 0, 0, 7.5, 0, 0, 0, 7.5, 0, 0, 0, 0, 0, 7.5, 7.5, 0, 0, 0, 0, 0, 0, 7.5, 7.5, 0, 0, 7.5, 0, 0, 0, 0, 0, 0, 7.5, 0, 0, 0, 0, 0, 7.5, 0, 0, 0, 0, 7.5, 0, 0, 0, 0, 0, 0, 0, 0, 0, 0, 0, 0, 0, 0, 7.5, 7.5, 7.5, 7.5, 0, 0, 0, 0, 0, 0, 0, 0, 7.5, 0, 0, 0, 7.5, 0, 7.5, 0, 0, 0, 0, 0, 0, 0, 0, 0, 7.5, 0, 0, 0, 0, 0, 0, 0, 0, 0, 7.5, 7.5, 0, 0, 0, 7.5, 7.5, 0.0, 7.5, 7.5, 7.5, 0.0, 7.5, 7.5, 7.5, 7.5, 7.5, 0.0, 0.0, 7.5, 7.5, 7.5, 7.5, 7.5, 7.5, 0.0, 0.0, 7.5, 7.5, 0.0, 7.5, 7.5, 7.5, 7.5, 7.5, 7.5, 0.0, 7.5, 7.5, 7.5, 7.5, 7.5, 0.0, 7.5, 7.5, 7.5, 7.5, 0.0, 7.5, 7.5, 7.5, 7.5, 7.5, 7.5, 7.5, 7.5, 7.5, 7.5, 7.5, 7.5, 7.5, 7.5, 0.0, 0.0, 0.0, 0.0, 7.5, 7.5, 7.5, 7.5, 7.5, 7.5, 7.5, 7.5, 0.0, 7.5, 7.5, 7.5, 0.0, 7.5, 0.0, 7.5, 7.5, 7.5, 7.5, 7.5, 7.5, 7.5, 7.5, 7.5, 0.0, 7.5, 7.5, 7.5, 7.5, 7.5, 7.5, 7.5, 7.5, 7.5, 0.0, 0.0, 7.5, 7.5, 7.5, 0, 0, 7.5, 0, 0, 0, 7.5, 0, 0, 0, 0, 0, 7.5, 7.5, 0, 0, 0, 0, 0, 0, 7.5, 7.5, 0, 0, 7.5, 0, 0, 0, 0, 0, 0, 7.5, 0, 0, 0, 0, 0, 7.5, 0, 0, 0, 0, 7.5, 0, 0, 0, 0, 0, 0, 0, 0, 0, 0, 0, 0, 0, 0, 7.5, 7.5, 7.5, 7.5, 0, 0, 0, 0, 0, 0, 0, 0, 7.5, 0, 0, 0, 7.5, 0, 7.5, 0, 0, 0, 0, 0, 0, 0, 0, 0, 7.5, 0, 0, 0, 0, 0, 0, 0, 0, 0, 7.5, 7.5, 0, 0, 0, 0, 0, 7.5, 0, 0, 0, 7.5, 0, 0, 0, 0, 0, 7.5, 7.5, 0, 0, 0, 0, 0, 0, 7.5, 7.5, 0, 0, 7.5, 0, 0, 0, 0, 0, 0, 7.5, 0, 0, 0, 0, 0, 7.5, 0, 0, 0, 0, 7.5, 0, 0, 0, 0, 0, 0, 0, 0, 0, 0, 0, 0, 0, 0, 7.5, 7.5, 7.5, 7.5, 0, 0, 0, 0, 0, 0, 0, 0, 7.5, 0, 0, 0, 7.5, 0, 7.5, 0, 0, 0, 0, 0, 0, 0, 0, 0, 7.5, 0, 0, 0, 0, 0, 0, 0, 0, 0, 7.5, 7.5, 0, 0, 0, 0, 0, 7.5, 0, 0, 0, 7.5, 0, 0, 0, 0, 0, 7.5, 7.5, 0, 0, 0, 0, 0, 0, 7.5, 7.5, 0, 0, 7.5, 0, 0, 0, 0, 0, 0, 7.5, 0, 0, 0, 0, 0, 7.5, 0, 0, 0, 0, 7.5, 0, 0, 0, 0, 0, 0, 0, 0, 0, 0, 0, 0, 0, 0, 7.5, 7.5, 7.5, 7.5, 0, 0, 0, 0, 0, 0, 0, 0, 7.5, 0, 0, 0, 7.5, 0, 7.5, 0, 0, 0, 0, 0, 0, 0, 0, 0, 7.5, 0, 0, 0, 0, 0, 0, 0, 0, 0, 7.5, 7.5, 0, 0, 0, 0, 0, 7.5, 0, 0, 0, 7.5, 0, 0, 0, 0, 0, 7.5, 7.5, 0, 0, 0, 0, 0, 0, 7.5, 7.5, 0, 0, 7.5, 0, 0, 0, 0, 0, 0, 7.5, 0, 0, 0, 0, 0, 7.5, 0, 0, 0, 0, 7.5, 0, 0, 0, 0, 0, 0, 0, 0, 0, 0, 0, 0, 0, 0, 7.5, 7.5, 7.5, 7.5, 0, 0, 0, 0, 0, 0, 0, 0, 7.5, 0, 0, 0, 7.5, 0, 7.5, 0, 0, 0, 0, 0, 0, 0, 0, 0, 7.5, 0, 0, 0, 0, 0, 0, 0, 0, 0, 7.5, 7.5, 0, 0, 0, 0, 0, 7.5, 0, 0, 0, 7.5, 0, 0, 0, 0, 0, 7.5, 7.5, 0, 0, 0, 0, 0, 0, 7.5, 7.5, 0, 0, 7.5, 0, 0, 0, 0, 0, 0, 7.5, 0, 0, 0, 0, 0, 7.5, 0, 0, 0, 0, 7.5, 0, 0, 0, 0, 0, 0, 0, 0, 0, 0, 0, 0, 0, 0, 7.5, 7.5, 7.5, 7.5, 0, 0, 0, 0, 0, 0, 0, 0, 7.5, 0, 0, 0, 7.5, 0, 7.5, 0, 0, 0, 0, 0, 0, 0, 0, 0, 7.5, 0, 0, 0, 0, 0, 0, 0, 0, 0, 7.5, 7.5, 0, 0, 0, 0, 0, 7.5, 0, 0, 0, 7.5, 0, 0, 0, 0, 0, 7.5, 7.5, 0, 0, 0, 0, 0, 0, 7.5, 7.5, 0, 0, 7.5, 0, 0, 0, 0, 0, 0, 7.5, 0, 0, 0, 0, 0, 7.5, 0, 0, 0, 0, 7.5, 0, 0, 0, 0, 0, 0, 0, 0, 0, 0, 0, 0, 0, 0, 7.5, 7.5, 7.5, 7.5, 0, 0, 0, 0, 0, 0, 0, 0, 7.5, 0, 0, 0, 7.5, 0, 7.5, 0, 0, 0, 0, 0, 0, 0, 0, 0, 7.5, 0, 0, 0, 0, 0, 0, 0, 0, 0, 7.5, 7.5, 0, 0, 0, 7.5, 7.5, 0.0, 7.5, 7.5, 7.5, 0.0, 7.5, 7.5, 7.5, 7.5, 7.5, 0.0, 0.0, 7.5, 7.5, 7.5, 7.5, 7.5, 7.5, 0.0, 0.0, 7.5, 7.5, 0.0, 7.5, 7.5, 7.5, 7.5, 7.5, 7.5, 0.0, 7.5, 7.5, 7.5, 7.5, 7.5, 0.0, 7.5, 7.5, 7.5, 7.5, 0.0, 7.5, 7.5, 7.5, 7.5, 7.5, 7.5, 7.5, 7.5, 7.5, 7.5, 7.5, 7.5, 7.5, 7.5, 0.0, 0.0, 0.0, 0.0, 7.5, 7.5, 7.5, 7.5, 7.5, 7.5, 7.5, 7.5, 0.0, 7.5, 7.5, 7.5, 0.0, 7.5, 0.0, 7.5, 7.5, 7.5, 7.5, 7.5, 7.5, 7.5, 7.5, 7.5, 0.0, 7.5, 7.5, 7.5, 7.5, 7.5, 7.5, 7.5, 7.5, 7.5, 0.0, 0.0, 7.5, 7.5, 7.5, 0, 0, 7.5, 0, 0, 0, 7.5, 0, 0, 0, 0, 0, 7.5, 7.5, 0, 0, 0, 0, 0, 0, 7.5, 7.5, 0, 0, 7.5, 0, 0, 0, 0, 0, 0, 7.5, 0, 0, 0, 0, 0, 7.5, 0, 0, 0, 0, 7.5, 0, 0, 0, 0, 0, 0, 0, 0, 0, 0, 0, 0, 0, 0, 7.5, 7.5, 7.5, 7.5, 0, 0, 0, 0, 0, 0, 0, 0, 7.5, 0, 0, 0, 7.5, 0, 7.5, 0, 0, 0, 0, 0, 0, 0, 0, 0, 7.5, 0, 0, 0, 0, 0, 0, 0, 0, 0, 7.5, 7.5, 0, 0, 0, 0, 0, 7.5, 0, 0, 0, 7.5, 0, 0, 0, 0, 0, 7.5, 7.5, 0, 0, 0, 0, 0, 0, 7.5, 7.5, 0, 0, 7.5, 0, 0, 0, 0, 0, 0, 7.5, 0, 0, 0, 0, 0, 7.5, 0, 0, 0, 0, 7.5, 0, 0, 0, 0, 0, 0, 0, 0, 0, 0, 0, 0, 0, 0, 7.5, 7.5, 7.5, 7.5, 0, 0, 0, 0, 0, 0, 0, 0, 7.5, 0, 0, 0, 7.5, 0, 7.5, 0, 0, 0, 0, 0, 0, 0, 0, 0, 7.5, 0, 0, 0, 0, 0, 0, 0, 0, 0, 7.5, 7.5, 0, 0, 0, 0, 0, 7.5, 0, 0, 0, 7.5, 0, 0, 0, 0, 0, 7.5, 7.5, 0, 0, 0, 0, 0, 0, 7.5, 7.5, 0, 0, 7.5, 0, 0, 0, 0, 0, 0, 7.5, 0, 0, 0, 0, 0, 7.5, 0, 0, 0, 0, 7.5, 0, 0, 0, 0, 0, 0, 0, 0, 0, 0, 0, 0, 0, 0, 7.5, 7.5, 7.5, 7.5, 0, 0, 0, 0, 0, 0, 0, 0, 7.5, 0, 0, 0, 7.5, 0, 7.5, 0, 0, 0, 0, 0, 0, 0, 0, 0, 7.5, 0, 0, 0, 0, 0, 0, 0, 0, 0, 7.5, 7.5, 0, 0, 0, 0, 0, 7.5, 0, 0, 0, 7.5, 0, 0, 0, 0, 0, 7.5, 7.5, 0, 0, 0, 0, 0, 0, 7.5, 7.5, 0, 0, 7.5, 0, 0, 0, 0, 0, 0, 7.5, 0, 0, 0, 0, 0, 7.5, 0, 0, 0, 0, 7.5, 0, 0, 0, 0, 0, 0, 0, 0, 0, 0, 0, 0, 0, 0, 7.5, 7.5, 7.5, 7.5, 0, 0, 0, 0, 0, 0, 0, 0, 7.5, 0, 0, 0, 7.5, 0, 7.5, 0, 0, 0, 0, 0, 0, 0, 0, 0, 7.5, 0, 0, 0, 0, 0, 0, 0, 0, 0, 7.5, 7.5, 0, 0, 0, 0, 0, 7.5, 0, 0, 0, 7.5, 0, 0, 0, 0, 0, 7.5, 7.5, 0, 0, 0, 0, 0, 0, 7.5, 7.5, 0, 0, 7.5, 0, 0, 0, 0, 0, 0, 7.5, 0, 0, 0, 0, 0, 7.5, 0, 0, 0, 0, 7.5, 0, 0, 0, 0, 0, 0, 0, 0, 0, 0, 0, 0, 0, 0, 7.5, 7.5, 7.5, 7.5, 0, 0, 0, 0, 0, 0, 0, 0, 7.5, 0, 0, 0, 7.5, 0, 7.5, 0, 0, 0, 0, 0, 0, 0, 0, 0, 7.5, 0, 0, 0, 0, 0, 0, 0, 0, 0, 7.5, 7.5, 0, 0, 0, 7.5, 7.5, 0.0, 7.5, 7.5, 7.5, 0.0, 7.5, 7.5, 7.5, 7.5, 7.5, 0.0, 0.0, 7.5, 7.5, 7.5, 7.5, 7.5, 7.5, 0.0, 0.0, 7.5, 7.5, 0.0, 7.5, 7.5, 7.5, 7.5, 7.5, 7.5, 0.0, 7.5, 7.5, 7.5, 7.5, 7.5, 0.0, 7.5, 7.5, 7.5, 7.5, 0.0, 7.5, 7.5, 7.5, 7.5, 7.5, 7.5, 7.5, 7.5, 7.5, 7.5, 7.5, 7.5, 7.5, 7.5, 0.0, 0.0, 0.0, 0.0, 7.5, 7.5, 7.5, 7.5, 7.5, 7.5, 7.5, 7.5, 0.0, 7.5, 7.5, 7.5, 0.0, 7.5, 0.0, 7.5, 7.5, 7.5, 7.5, 7.5, 7.5, 7.5, 7.5, 7.5, 0.0, 7.5, 7.5, 7.5, 7.5, 7.5, 7.5, 7.5, 7.5, 7.5, 0.0, 0.0, 7.5, 7.5, 7.5, 0, 0, 7.5, 0, 0, 0, 7.5, 0, 0, 0, 0, 0, 7.5, 7.5, 0, 0, 0, 0, 0, 0, 7.5, 7.5, 0, 0, 7.5, 0, 0, 0, 0, 0, 0, 7.5, 0, 0, 0, 0, 0, 7.5, 0, 0, 0, 0, 7.5, 0, 0, 0, 0, 0, 0, 0, 0, 0, 0, 0, 0, 0, 0, 7.5, 7.5, 7.5, 7.5, 0, 0, 0, 0, 0, 0, 0, 0, 7.5, 0, 0, 0, 7.5, 0, 7.5, 0, 0, 0, 0, 0, 0, 0, 0, 0, 7.5, 0, 0, 0, 0, 0, 0, 0, 0, 0, 7.5, 7.5, 0, 0, 0, 0, 0, 7.5, 0, 0, 0, 7.5, 0, 0, 0, 0, 0, 7.5, 7.5, 0, 0, 0, 0, 0, 0, 7.5, 7.5, 0, 0, 7.5, 0, 0, 0, 0, 0, 0, 7.5, 0, 0, 0, 0, 0, 7.5, 0, 0, 0, 0, 7.5, 0, 0, 0, 0, 0, 0, 0, 0, 0, 0, 0, 0, 0, 0, 7.5, 7.5, 7.5, 7.5, 0, 0, 0, 0, 0, 0, 0, 0, 7.5, 0, 0, 0, 7.5, 0, 7.5, 0, 0, 0, 0, 0, 0, 0, 0, 0, 7.5, 0, 0, 0, 0, 0, 0, 0, 0, 0, 7.5, 7.5, 0, 0, 0, 0, 0, 7.5, 0, 0, 0, 7.5, 0, 0, 0, 0, 0, 7.5, 7.5, 0, 0, 0, 0, 0, 0, 7.5, 7.5, 0, 0, 7.5, 0, 0, 0, 0, 0, 0, 7.5, 0, 0, 0, 0, 0, 7.5, 0, 0, 0, 0, 7.5, 0, 0, 0, 0, 0, 0, 0, 0, 0, 0, 0, 0, 0, 0, 7.5, 7.5, 7.5, 7.5, 0, 0, 0, 0, 0, 0, 0, 0, 7.5, 0, 0, 0, 7.5, 0, 7.5, 0, 0, 0, 0, 0, 0, 0, 0, 0, 7.5, 0, 0, 0, 0, 0, 0, 0, 0, 0, 7.5, 7.5, 0, 0, 0, 0, 0, 7.5, 0, 0, 0, 7.5, 0, 0, 0, 0, 0, 7.5, 7.5, 0, 0, 0, 0, 0, 0, 7.5, 7.5, 0, 0, 7.5, 0, 0, 0, 0, 0, 0, 7.5, 0, 0, 0, 0, 0, 7.5, 0, 0, 0, 0, 7.5, 0, 0, 0, 0, 0, 0, 0, 0, 0, 0, 0, 0, 0, 0, 7.5, 7.5, 7.5, 7.5, 0, 0, 0, 0, 0, 0, 0, 0, 7.5, 0, 0, 0, 7.5, 0, 7.5, 0, 0, 0, 0, 0, 0, 0, 0, 0, 7.5, 0, 0, 0, 0, 0, 0, 0, 0, 0, 7.5, 7.5, 0, 0, 0, 7.5, 7.5, 0.0, 7.5, 7.5, 7.5, 0.0, 7.5, 7.5, 7.5, 7.5, 7.5, 0.0, 0.0, 7.5, 7.5, 7.5, 7.5, 7.5, 7.5, 0.0, 0.0, 7.5, 7.5, 0.0, 7.5, 7.5, 7.5, 7.5, 7.5, 7.5, 0.0, 7.5, 7.5, 7.5, 7.5, 7.5, 0.0, 7.5, 7.5, 7.5, 7.5, 0.0, 7.5, 7.5, 7.5, 7.5, 7.5, 7.5, 7.5, 7.5, 7.5, 7.5, 7.5, 7.5, 7.5, 7.5, 0.0, 0.0, 0.0, 0.0, 7.5, 7.5, 7.5, 7.5, 7.5, 7.5, 7.5, 7.5, 0.0, 7.5, 7.5, 7.5, 0.0, 7.5, 0.0, 7.5, 7.5, 7.5, 7.5, 7.5, 7.5, 7.5, 7.5, 7.5, 0.0, 7.5, 7.5, 7.5, 7.5, 7.5, 7.5, 7.5, 7.5, 7.5, 0.0, 0.0, 7.5, 7.5, 7.5, 0, 0, 7.5, 0, 0, 0, 7.5, 0, 0, 0, 0, 0, 7.5, 7.5, 0, 0, 0, 0, 0, 0, 7.5, 7.5, 0, 0, 7.5, 0, 0, 0, 0, 0, 0, 7.5, 0, 0, 0, 0, 0, 7.5, 0, 0, 0, 0, 7.5, 0, 0, 0, 0, 0, 0, 0, 0, 0, 0, 0, 0, 0, 0, 7.5, 7.5, 7.5, 7.5, 0, 0, 0, 0, 0, 0, 0, 0, 7.5, 0, 0, 0, 7.5, 0, 7.5, 0, 0, 0, 0, 0, 0, 0, 0, 0, 7.5, 0, 0, 0, 0, 0, 0, 0, 0, 0, 7.5, 7.5, 0, 0, 0, 0, 0, 7.5, 0, 0, 0, 7.5, 0, 0, 0, 0, 0, 7.5, 7.5, 0, 0, 0, 0, 0, 0, 7.5, 7.5, 0, 0, 7.5, 0, 0, 0, 0, 0, 0, 7.5, 0, 0, 0, 0, 0, 7.5, 0, 0, 0, 0, 7.5, 0, 0, 0, 0, 0, 0, 0, 0, 0, 0, 0, 0, 0, 0, 7.5, 7.5, 7.5, 7.5, 0, 0, 0, 0, 0, 0, 0, 0, 7.5, 0, 0, 0, 7.5, 0, 7.5, 0, 0, 0, 0, 0, 0, 0, 0, 0, 7.5, 0, 0, 0, 0, 0, 0, 0, 0, 0, 7.5, 7.5, 0, 0, 0, 0, 0, 7.5, 0, 0, 0, 7.5, 0, 0, 0, 0, 0, 7.5, 7.5, 0, 0, 0, 0, 0, 0, 7.5, 7.5, 0, 0, 7.5, 0, 0, 0, 0, 0, 0, 7.5, 0, 0, 0, 0, 0, 7.5, 0, 0, 0, 0, 7.5, 0, 0, 0, 0, 0, 0, 0, 0, 0, 0, 0, 0, 0, 0, 7.5, 7.5, 7.5, 7.5, 0, 0, 0, 0, 0, 0, 0, 0, 7.5, 0, 0, 0, 7.5, 0, 7.5, 0, 0, 0, 0, 0, 0, 0, 0, 0, 7.5, 0, 0, 0, 0, 0, 0, 0, 0, 0, 7.5, 7.5, 0, 0, 0, 0, 0, 7.5, 0, 0, 0, 7.5, 0, 0, 0, 0, 0, 7.5, 7.5, 0, 0, 0, 0, 0, 0, 7.5, 7.5, 0, 0, 7.5, 0, 0, 0, 0, 0, 0, 7.5, 0, 0, 0, 0, 0, 7.5, 0, 0, 0, 0, 7.5, 0, 0, 0, 0, 0, 0, 0, 0, 0, 0, 0, 0, 0, 0, 7.5, 7.5, 7.5, 7.5, 0, 0, 0, 0, 0, 0, 0, 0, 7.5, 0, 0, 0, 7.5, 0, 7.5, 0, 0, 0, 0, 0, 0, 0, 0, 0, 7.5, 0, 0, 0, 0, 0, 0, 0, 0, 0, 7.5, 7.5, 0, 0, 0, 0, 0, 7.5, 0, 0, 0, 7.5, 0, 0, 0, 0, 0, 7.5, 7.5, 0, 0, 0, 0, 0, 0, 7.5, 7.5, 0, 0, 7.5, 0, 0, 0, 0, 0, 0, 7.5, 0, 0, 0, 0, 0, 7.5, 0, 0, 0, 0, 7.5, 0, 0, 0, 0, 0, 0, 0, 0, 0, 0, 0, 0, 0, 0, 7.5, 7.5, 7.5, 7.5, 0, 0, 0, 0, 0, 0, 0, 0, 7.5, 0, 0, 0, 7.5, 0, 7.5, 0, 0, 0, 0, 0, 0, 0, 0, 0, 7.5, 0, 0, 0, 0, 0, 0, 0, 0, 0, 7.5, 7.5, 0, 0, 0, 0, 0, 7.5, 0, 0, 0, 7.5, 0, 0, 0, 0, 0, 7.5, 7.5, 0, 0, 0, 0, 0, 0, 7.5, 7.5, 0, 0, 7.5, 0, 0, 0, 0, 0, 0, 7.5, 0, 0, 0, 0, 0, 7.5, 0, 0, 0, 0, 7.5, 0, 0, 0, 0, 0, 0, 0, 0, 0, 0, 0, 0, 0, 0, 7.5, 7.5, 7.5, 7.5, 0, 0, 0, 0, 0, 0, 0, 0, 7.5, 0, 0, 0, 7.5, 0, 7.5, 0, 0, 0, 0, 0, 0, 0, 0, 0, 7.5, 0, 0, 0, 0, 0, 0, 0, 0, 0, 7.5, 7.5, 0, 0, 0, 0, 0, 7.5, 0, 0, 0, 7.5, 0, 0, 0, 0, 0, 7.5, 7.5, 0, 0, 0, 0, 0, 0, 7.5, 7.5, 0, 0, 7.5, 0, 0, 0, 0, 0, 0, 7.5, 0, 0, 0, 0, 0, 7.5, 0, 0, 0, 0, 7.5, 0, 0, 0, 0, 0, 0, 0, 0, 0, 0, 0, 0, 0, 0, 7.5, 7.5, 7.5, 7.5, 0, 0, 0, 0, 0, 0, 0, 0, 7.5, 0, 0, 0, 7.5, 0, 7.5, 0, 0, 0, 0, 0, 0, 0, 0, 0, 7.5, 0, 0, 0, 0, 0, 0, 0, 0, 0, 7.5, 7.5, 0, 0, 0, 0, 0, 7.5, 0, 0, 0, 7.5, 0, 0, 0, 0, 0, 7.5, 7.5, 0, 0, 0, 0, 0, 0, 7.5, 7.5, 0, 0, 7.5, 0, 0, 0, 0, 0, 0, 7.5, 0, 0, 0, 0, 0, 7.5, 0, 0, 0, 0, 7.5, 0, 0, 0, 0, 0, 0, 0, 0, 0, 0, 0, 0, 0, 0, 7.5, 7.5, 7.5, 7.5, 0, 0, 0, 0, 0, 0, 0, 0, 7.5, 0, 0, 0, 7.5, 0, 7.5, 0, 0, 0, 0, 0, 0, 0, 0, 0, 7.5, 0, 0, 0, 0, 0, 0, 0, 0, 0, 7.5, 7.5, 0, 0, 0, 0, 0, 7.5, 0, 0, 0, 7.5, 0, 0, 0, 0, 0, 7.5, 7.5, 0, 0, 0, 0, 0, 0, 7.5, 7.5, 0, 0, 7.5, 0, 0, 0, 0, 0, 0, 7.5, 0, 0, 0, 0, 0, 7.5, 0, 0, 0, 0, 7.5, 0, 0, 0, 0, 0, 0, 0, 0, 0, 0, 0, 0, 0, 0, 7.5, 7.5, 7.5, 7.5, 0, 0, 0, 0, 0, 0, 0, 0, 7.5, 0, 0, 0, 7.5, 0, 7.5, 0, 0, 0, 0, 0, 0, 0, 0, 0, 7.5, 0, 0, 0, 0, 0, 0, 0, 0, 0, 7.5, 7.5, 0, 0, 0, 0, 0, 7.5, 0, 0, 0, 7.5, 0, 0, 0, 0, 0, 7.5, 7.5, 0, 0, 0, 0, 0, 0, 7.5, 7.5, 0, 0, 7.5, 0, 0, 0, 0, 0, 0, 7.5, 0, 0, 0, 0, 0, 7.5, 0, 0, 0, 0, 7.5, 0, 0, 0, 0, 0, 0, 0, 0, 0, 0, 0, 0, 0, 0, 7.5, 7.5, 7.5, 7.5, 0, 0, 0, 0, 0, 0, 0, 0, 7.5, 0, 0, 0, 7.5, 0, 7.5, 0, 0, 0, 0, 0, 0, 0, 0, 0, 7.5, 0, 0, 0, 0, 0, 0, 0, 0, 0, 7.5, 7.5, 0, 0, 0, 0, 0, 7.5, 0, 0, 0, 7.5, 0, 0, 0, 0, 0, 7.5, 7.5, 0, 0, 0, 0, 0, 0, 7.5, 7.5, 0, 0, 7.5, 0, 0, 0, 0, 0, 0, 7.5, 0, 0, 0, 0, 0, 7.5, 0, 0, 0, 0, 7.5, 0, 0, 0, 0, 0, 0, 0, 0, 0, 0, 0, 0, 0, 0, 7.5, 7.5, 7.5, 7.5, 0, 0, 0, 0, 0, 0, 0, 0, 7.5, 0, 0, 0, 7.5, 0, 7.5, 0, 0, 0, 0, 0, 0, 0, 0, 0, 7.5, 0, 0, 0, 0, 0, 0, 0, 0, 0, 7.5, 7.5, 0, 0, 0, 0, 0, 7.5, 0, 0, 0, 7.5, 0, 0, 0, 0, 0, 7.5, 7.5, 0, 0, 0, 0, 0, 0, 7.5, 7.5, 0, 0, 7.5, 0, 0, 0, 0, 0, 0, 7.5, 0, 0, 0, 0, 0, 7.5, 0, 0, 0, 0, 7.5, 0, 0, 0, 0, 0, 0, 0, 0, 0, 0, 0, 0, 0, 0, 7.5, 7.5, 7.5, 7.5, 0, 0, 0, 0, 0, 0, 0, 0, 7.5, 0, 0, 0, 7.5, 0, 7.5, 0, 0, 0, 0, 0, 0, 0, 0, 0, 7.5, 0, 0, 0, 0, 0, 0, 0, 0, 0, 7.5, 7.5, 0, 0, 0, 0, 0, 7.5, 0, 0, 0, 7.5, 0, 0, 0, 0, 0, 7.5, 7.5, 0, 0, 0, 0, 0, 0, 7.5, 7.5, 0, 0, 7.5, 0, 0, 0, 0, 0, 0, 7.5, 0, 0, 0, 0, 0, 7.5, 0, 0, 0, 0, 7.5, 0, 0, 0, 0, 0, 0, 0, 0, 0, 0, 0, 0, 0, 0, 7.5, 7.5, 7.5, 7.5, 0, 0, 0, 0, 0, 0, 0, 0, 7.5, 0, 0, 0, 7.5, 0, 7.5, 0, 0, 0, 0, 0, 0, 0, 0, 0, 7.5, 0, 0, 0, 0, 0, 0, 0, 0, 0, 7.5, 7.5, 0, 0, 0, 0, 0, 7.5, 0, 0, 0, 7.5, 0, 0, 0, 0, 0, 7.5, 7.5, 0, 0, 0, 0, 0, 0, 7.5, 7.5, 0, 0, 7.5, 0, 0, 0, 0, 0, 0, 7.5, 0, 0, 0, 0, 0, 7.5, 0, 0, 0, 0, 7.5, 0, 0, 0, 0, 0, 0, 0, 0, 0, 0, 0, 0, 0, 0, 7.5, 7.5, 7.5, 7.5, 0, 0, 0, 0, 0, 0, 0, 0, 7.5, 0, 0, 0, 7.5, 0, 7.5, 0, 0, 0, 0, 0, 0, 0, 0, 0, 7.5, 0, 0, 0, 0, 0, 0, 0, 0, 0, 7.5, 7.5, 0, 0, 0, 7.5, 7.5, 0.0, 7.5, 7.5, 7.5, 0.0, 7.5, 7.5, 7.5, 7.5, 7.5, 0.0, 0.0, 7.5, 7.5, 7.5, 7.5, 7.5, 7.5, 0.0, 0.0, 7.5, 7.5, 0.0, 7.5, 7.5, 7.5, 7.5, 7.5, 7.5, 0.0, 7.5, 7.5, 7.5, 7.5, 7.5, 0.0, 7.5, 7.5, 7.5, 7.5, 0.0, 7.5, 7.5, 7.5, 7.5, 7.5, 7.5, 7.5, 7.5, 7.5, 7.5, 7.5, 7.5, 7.5, 7.5, 0.0, 0.0, 0.0, 0.0, 7.5, 7.5, 7.5, 7.5, 7.5, 7.5, 7.5, 7.5, 0.0, 7.5, 7.5, 7.5, 0.0, 7.5, 0.0, 7.5, 7.5, 7.5, 7.5, 7.5, 7.5, 7.5, 7.5, 7.5, 0.0, 7.5, 7.5, 7.5, 7.5, 7.5, 7.5, 7.5, 7.5, 7.5, 0.0, 0.0, 7.5, 7.5, 7.5, 7.5, 7.5, 0.0, 7.5, 7.5, 7.5, 0.0, 7.5, 7.5, 7.5, 7.5, 7.5, 0.0, 0.0, 7.5, 7.5, 7.5, 7.5, 7.5, 7.5, 0.0, 0.0, 7.5, 7.5, 0.0, 7.5, 7.5, 7.5, 7.5, 7.5, 7.5, 0.0, 7.5, 7.5, 7.5, 7.5, 7.5, 0.0, 7.5, 7.5, 7.5, 7.5, 0.0, 7.5, 7.5, 7.5, 7.5, 7.5, 7.5, 7.5, 7.5, 7.5, 7.5, 7.5, 7.5, 7.5, 7.5, 0.0, 0.0, 0.0, 0.0, 7.5, 7.5, 7.5, 7.5, 7.5, 7.5, 7.5, 7.5, 0.0, 7.5, 7.5, 7.5, 0.0, 7.5, 0.0, 7.5, 7.5, 7.5, 7.5, 7.5, 7.5, 7.5, 7.5, 7.5, 0.0, 7.5, 7.5, 7.5, 7.5, 7.5, 7.5, 7.5, 7.5, 7.5, 0.0, 0.0, 7.5, 7.5, 7.5, 7.5, 7.5, 0.0, 7.5, 7.5, 7.5, 0.0, 7.5, 7.5, 7.5, 7.5, 7.5, 0.0, 0.0, 7.5, 7.5, 7.5, 7.5, 7.5, 7.5, 0.0, 0.0, 7.5, 7.5, 0.0, 7.5, 7.5, 7.5, 7.5, 7.5, 7.5, 0.0, 7.5, 7.5, 7.5, 7.5, 7.5, 0.0, 7.5, 7.5, 7.5, 7.5, 0.0, 7.5, 7.5, 7.5, 7.5, 7.5, 7.5, 7.5, 7.5, 7.5, 7.5, 7.5, 7.5, 7.5, 7.5, 0.0, 0.0, 0.0, 0.0, 7.5, 7.5, 7.5, 7.5, 7.5, 7.5, 7.5, 7.5, 0.0, 7.5, 7.5, 7.5, 0.0, 7.5, 0.0, 7.5, 7.5, 7.5, 7.5, 7.5, 7.5, 7.5, 7.5, 7.5, 0.0, 7.5, 7.5, 7.5, 7.5, 7.5, 7.5, 7.5, 7.5, 7.5, 0.0, 0.0, 7.5, 7.5, 7.5, 7.5, 7.5, 0.0, 7.5, 7.5, 7.5, 0.0, 7.5, 7.5, 7.5, 7.5, 7.5, 0.0, 0.0, 7.5, 7.5, 7.5, 7.5, 7.5, 7.5, 0.0, 0.0, 7.5, 7.5, 0.0, 7.5, 7.5, 7.5, 7.5, 7.5, 7.5, 0.0, 7.5, 7.5, 7.5, 7.5, 7.5, 0.0, 7.5, 7.5, 7.5, 7.5, 0.0, 7.5, 7.5, 7.5, 7.5, 7.5, 7.5, 7.5, 7.5, 7.5, 7.5, 7.5, 7.5, 7.5, 7.5, 0.0, 0.0, 0.0, 0.0, 7.5, 7.5, 7.5, 7.5, 7.5, 7.5, 7.5, 7.5, 0.0, 7.5, 7.5, 7.5, 0.0, 7.5, 0.0, 7.5, 7.5, 7.5, 7.5, 7.5, 7.5, 7.5, 7.5, 7.5, 0.0, 7.5, 7.5, 7.5, 7.5, 7.5, 7.5, 7.5, 7.5, 7.5, 0.0, 0.0, 7.5, 7.5, 7.5, 0, 0, 7.5, 0, 0, 0, 7.5, 0, 0, 0, 0, 0, 7.5, 7.5, 0, 0, 0, 0, 0, 0, 7.5, 7.5, 0, 0, 7.5, 0, 0, 0, 0, 0, 0, 7.5, 0, 0, 0, 0, 0, 7.5, 0, 0, 0, 0, 7.5, 0, 0, 0, 0, 0, 0, 0, 0, 0, 0, 0, 0, 0, 0, 7.5, 7.5, 7.5, 7.5, 0, 0, 0, 0, 0, 0, 0, 0, 7.5, 0, 0, 0, 7.5, 0, 7.5, 0, 0, 0, 0, 0, 0, 0, 0, 0, 7.5, 0, 0, 0, 0, 0, 0, 0, 0, 0, 7.5, 7.5, 0, 0, 0, 0, 0, 7.5, 0, 0, 0, 7.5, 0, 0, 0, 0, 0, 7.5, 7.5, 0, 0, 0, 0, 0, 0, 7.5, 7.5, 0, 0, 7.5, 0, 0, 0, 0, 0, 0, 7.5, 0, 0, 0, 0, 0, 7.5, 0, 0, 0, 0, 7.5, 0, 0, 0, 0, 0, 0, 0, 0, 0, 0, 0, 0, 0, 0, 7.5, 7.5, 7.5, 7.5, 0, 0, 0, 0, 0, 0, 0, 0, 7.5, 0, 0, 0, 7.5, 0, 7.5, 0, 0, 0, 0, 0, 0, 0, 0, 0, 7.5, 0, 0, 0, 0, 0, 0, 0, 0, 0, 7.5, 7.5, 0, 0, 0, 0, 0, 7.5, 0, 0, 0, 7.5, 0, 0, 0, 0, 0, 7.5, 7.5, 0, 0, 0, 0, 0, 0, 7.5, 7.5, 0, 0, 7.5, 0, 0, 0, 0, 0, 0, 7.5, 0, 0, 0, 0, 0, 7.5, 0, 0, 0, 0, 7.5, 0, 0, 0, 0, 0, 0, 0, 0, 0, 0, 0, 0, 0, 0, 7.5, 7.5, 7.5, 7.5, 0, 0, 0, 0, 0, 0, 0, 0, 7.5, 0, 0, 0, 7.5, 0, 7.5, 0, 0, 0, 0, 0, 0, 0, 0, 0, 7.5, 0, 0, 0, 0, 0, 0, 0, 0, 0, 7.5, 7.5, 0, 0, 0, 0, 0, 7.5, 0, 0, 0, 7.5, 0, 0, 0, 0, 0, 7.5, 7.5, 0, 0, 0, 0, 0, 0, 7.5, 7.5, 0, 0, 7.5, 0, 0, 0, 0, 0, 0, 7.5, 0, 0, 0, 0, 0, 7.5, 0, 0, 0, 0, 7.5, 0, 0, 0, 0, 0, 0, 0, 0, 0, 0, 0, 0, 0, 0, 7.5, 7.5, 7.5, 7.5, 0, 0, 0, 0, 0, 0, 0, 0, 7.5, 0, 0, 0, 7.5, 0, 7.5, 0, 0, 0, 0, 0, 0, 0, 0, 0, 7.5, 0, 0, 0, 0, 0, 0, 0, 0, 0, 7.5, 7.5, 0, 0, 0, 0, 0, 7.5, 0, 0, 0, 7.5, 0, 0, 0, 0, 0, 7.5, 7.5, 0, 0, 0, 0, 0, 0, 7.5, 7.5, 0, 0, 7.5, 0, 0, 0, 0, 0, 0, 7.5, 0, 0, 0, 0, 0, 7.5, 0, 0, 0, 0, 7.5, 0, 0, 0, 0, 0, 0, 0, 0, 0, 0, 0, 0, 0, 0, 7.5, 7.5, 7.5, 7.5, 0, 0, 0, 0, 0, 0, 0, 0, 7.5, 0, 0, 0, 7.5, 0, 7.5, 0, 0, 0, 0, 0, 0, 0, 0, 0, 7.5, 0, 0, 0, 0, 0, 0, 0, 0, 0, 7.5, 7.5, 0, 0, 0, 0, 0, 7.5, 0, 0, 0, 7.5, 0, 0, 0, 0, 0, 7.5, 7.5, 0, 0, 0, 0, 0, 0, 7.5, 7.5, 0, 0, 7.5, 0, 0, 0, 0, 0, 0, 7.5, 0, 0, 0, 0, 0, 7.5, 0, 0, 0, 0, 7.5, 0, 0, 0, 0, 0, 0, 0, 0, 0, 0, 0, 0, 0, 0, 7.5, 7.5, 7.5, 7.5, 0, 0, 0, 0, 0, 0, 0, 0, 7.5, 0, 0, 0, 7.5, 0, 7.5, 0, 0, 0, 0, 0, 0, 0, 0, 0, 7.5, 0, 0, 0, 0, 0, 0, 0, 0, 0, 7.5, 7.5, 0, 0, 0, 0, 0, 7.5, 0, 0, 0, 7.5, 0, 0, 0, 0, 0, 7.5, 7.5, 0, 0, 0, 0, 0, 0, 7.5, 7.5, 0, 0, 7.5, 0, 0, 0, 0, 0, 0, 7.5, 0, 0, 0, 0, 0, 7.5, 0, 0, 0, 0, 7.5, 0, 0, 0, 0, 0, 0, 0, 0, 0, 0, 0, 0, 0, 0, 7.5, 7.5, 7.5, 7.5, 0, 0, 0, 0, 0, 0, 0, 0, 7.5, 0, 0, 0, 7.5, 0, 7.5, 0, 0, 0, 0, 0, 0, 0, 0, 0, 7.5, 0, 0, 0, 0, 0, 0, 0, 0, 0, 7.5, 7.5, 0, 0, 0, 0, 0, 7.5, 0, 0, 0, 7.5, 0, 0, 0, 0, 0, 7.5, 7.5, 0, 0, 0, 0, 0, 0, 7.5, 7.5, 0, 0, 7.5, 0, 0, 0, 0, 0, 0, 7.5, 0, 0, 0, 0, 0, 7.5, 0, 0, 0, 0, 7.5, 0, 0, 0, 0, 0, 0, 0, 0, 0, 0, 0, 0, 0, 0, 7.5, 7.5, 7.5, 7.5, 0, 0, 0, 0, 0, 0, 0, 0, 7.5, 0, 0, 0, 7.5, 0, 7.5, 0, 0, 0, 0, 0, 0, 0, 0, 0, 7.5, 0, 0, 0, 0, 0, 0, 0, 0, 0, 7.5, 7.5, 0, 0, 0, 7.5, 7.5, 0.0, 7.5, 7.5, 7.5, 0.0, 7.5, 7.5, 7.5, 7.5, 7.5, 0.0, 0.0, 7.5, 7.5, 7.5, 7.5, 7.5, 7.5, 0.0, 0.0, 7.5, 7.5, 0.0, 7.5, 7.5, 7.5, 7.5, 7.5, 7.5, 0.0, 7.5, 7.5, 7.5, 7.5, 7.5, 0.0, 7.5, 7.5, 7.5, 7.5, 0.0, 7.5, 7.5, 7.5, 7.5, 7.5, 7.5, 7.5, 7.5, 7.5, 7.5, 7.5, 7.5, 7.5, 7.5, 0.0, 0.0, 0.0, 0.0, 7.5, 7.5, 7.5, 7.5, 7.5, 7.5, 7.5, 7.5, 0.0, 7.5, 7.5, 7.5, 0.0, 7.5, 0.0, 7.5, 7.5, 7.5, 7.5, 7.5, 7.5, 7.5, 7.5, 7.5, 0.0, 7.5, 7.5, 7.5, 7.5, 7.5, 7.5, 7.5, 7.5, 7.5, 0.0, 0.0, 7.5, 7.5, 7.5, 0, 0, 7.5, 0, 0, 0, 7.5, 0, 0, 0, 0, 0, 7.5, 7.5, 0, 0, 0, 0, 0, 0, 7.5, 7.5, 0, 0, 7.5, 0, 0, 0, 0, 0, 0, 7.5, 0, 0, 0, 0, 0, 7.5, 0, 0, 0, 0, 7.5, 0, 0, 0, 0, 0, 0, 0, 0, 0, 0, 0, 0, 0, 0, 7.5, 7.5, 7.5, 7.5, 0, 0, 0, 0, 0, 0, 0, 0, 7.5, 0, 0, 0, 7.5, 0, 7.5, 0, 0, 0, 0, 0, 0, 0, 0, 0, 7.5, 0, 0, 0, 0, 0, 0, 0, 0, 0, 7.5, 7.5, 0, 0, 0, 0, 0, 7.5, 0, 0, 0, 7.5, 0, 0, 0, 0, 0, 7.5, 7.5, 0, 0, 0, 0, 0, 0, 7.5, 7.5, 0, 0, 7.5, 0, 0, 0, 0, 0, 0, 7.5, 0, 0, 0, 0, 0, 7.5, 0, 0, 0, 0, 7.5, 0, 0, 0, 0, 0, 0, 0, 0, 0, 0, 0, 0, 0, 0, 7.5, 7.5, 7.5, 7.5, 0, 0, 0, 0, 0, 0, 0, 0, 7.5, 0, 0, 0, 7.5, 0, 7.5, 0, 0, 0, 0, 0, 0, 0, 0, 0, 7.5, 0, 0, 0, 0, 0, 0, 0, 0, 0, 7.5, 7.5, 0, 0, 0, 0, 0, 7.5, 0, 0, 0, 7.5, 0, 0, 0, 0, 0, 7.5, 7.5, 0, 0, 0, 0, 0, 0, 7.5, 7.5, 0, 0, 7.5, 0, 0, 0, 0, 0, 0, 7.5, 0, 0, 0, 0, 0, 7.5, 0, 0, 0, 0, 7.5, 0, 0, 0, 0, 0, 0, 0, 0, 0, 0, 0, 0, 0, 0, 7.5, 7.5, 7.5, 7.5, 0, 0, 0, 0, 0, 0, 0, 0, 7.5, 0, 0, 0, 7.5, 0, 7.5, 0, 0, 0, 0, 0, 0, 0, 0, 0, 7.5, 0, 0, 0, 0, 0, 0, 0, 0, 0, 7.5, 7.5, 0, 0, 0, 7.5, 7.5, 0.0, 7.5, 7.5, 7.5, 0.0, 7.5, 7.5, 7.5, 7.5, 7.5, 0.0, 0.0, 7.5, 7.5, 7.5, 7.5, 7.5, 7.5, 0.0, 0.0, 7.5, 7.5, 0.0, 7.5, 7.5, 7.5, 7.5, 7.5, 7.5, 0.0, 7.5, 7.5, 7.5, 7.5, 7.5, 0.0, 7.5, 7.5, 7.5, 7.5, 0.0, 7.5, 7.5, 7.5, 7.5, 7.5, 7.5, 7.5, 7.5, 7.5, 7.5, 7.5, 7.5, 7.5, 7.5, 0.0, 0.0, 0.0, 0.0, 7.5, 7.5, 7.5, 7.5, 7.5, 7.5, 7.5, 7.5, 0.0, 7.5, 7.5, 7.5, 0.0, 7.5, 0.0, 7.5, 7.5, 7.5, 7.5, 7.5, 7.5, 7.5, 7.5, 7.5, 0.0, 7.5, 7.5, 7.5, 7.5, 7.5, 7.5, 7.5, 7.5, 7.5, 0.0, 0.0, 7.5, 7.5, 7.5, 0, 0, 7.5, 0, 0, 0, 7.5, 0, 0, 0, 0, 0, 7.5, 7.5, 0, 0, 0, 0, 0, 0, 7.5, 7.5, 0, 0, 7.5, 0, 0, 0, 0, 0, 0, 7.5, 0, 0, 0, 0, 0, 7.5, 0, 0, 0, 0, 7.5, 0, 0, 0, 0, 0, 0, 0, 0, 0, 0, 0, 0, 0, 0, 7.5, 7.5, 7.5, 7.5, 0, 0, 0, 0, 0, 0, 0, 0, 7.5, 0, 0, 0, 7.5, 0, 7.5, 0, 0, 0, 0, 0, 0, 0, 0, 0, 7.5, 0, 0, 0, 0, 0, 0, 0, 0, 0, 7.5, 7.5, 0, 0, 0, 7.5, 7.5, 0.0, 7.5, 7.5, 7.5, 0.0, 7.5, 7.5, 7.5, 7.5, 7.5, 0.0, 0.0, 7.5, 7.5, 7.5, 7.5, 7.5, 7.5, 0.0, 0.0, 7.5, 7.5, 0.0, 7.5, 7.5, 7.5, 7.5, 7.5, 7.5, 0.0, 7.5, 7.5, 7.5, 7.5, 7.5, 0.0, 7.5, 7.5, 7.5, 7.5, 0.0, 7.5, 7.5, 7.5, 7.5, 7.5, 7.5, 7.5, 7.5, 7.5, 7.5, 7.5, 7.5, 7.5, 7.5, 0.0, 0.0, 0.0, 0.0, 7.5, 7.5, 7.5, 7.5, 7.5, 7.5, 7.5, 7.5, 0.0, 7.5, 7.5, 7.5, 0.0, 7.5, 0.0, 7.5, 7.5, 7.5, 7.5, 7.5, 7.5, 7.5, 7.5, 7.5, 0.0, 7.5, 7.5, 7.5, 7.5, 7.5, 7.5, 7.5, 7.5, 7.5, 0.0, 0.0, 7.5, 7.5, 7.5, 0, 0, 7.5, 0, 0, 0, 7.5, 0, 0, 0, 0, 0, 7.5, 7.5, 0, 0, 0, 0, 0, 0, 7.5, 7.5, 0, 0, 7.5, 0, 0, 0, 0, 0, 0, 7.5, 0, 0, 0, 0, 0, 7.5, 0, 0, 0, 0, 7.5, 0, 0, 0, 0, 0, 0, 0, 0, 0, 0, 0, 0, 0, 0, 7.5, 7.5, 7.5, 7.5, 0, 0, 0, 0, 0, 0, 0, 0, 7.5, 0, 0, 0, 7.5, 0, 7.5, 0, 0, 0, 0, 0, 0, 0, 0, 0, 7.5, 0, 0, 0, 0, 0, 0, 0, 0, 0, 7.5, 7.5, 0, 0, 0, 0, 0, 7.5, 0, 0, 0, 7.5, 0, 0, 0, 0, 0, 7.5, 7.5, 0, 0, 0, 0, 0, 0, 7.5, 7.5, 0, 0, 7.5, 0, 0, 0, 0, 0, 0, 7.5, 0, 0, 0, 0, 0, 7.5, 0, 0, 0, 0, 7.5, 0, 0, 0, 0, 0, 0, 0, 0, 0, 0, 0, 0, 0, 0, 7.5, 7.5, 7.5, 7.5, 0, 0, 0, 0, 0, 0, 0, 0, 7.5, 0, 0, 0, 7.5, 0, 7.5, 0, 0, 0, 0, 0, 0, 0, 0, 0, 7.5, 0, 0, 0, 0, 0, 0, 0, 0, 0, 7.5, 7.5, 0, 0, 0, 0, 0, 7.5, 0, 0, 0, 7.5, 0, 0, 0, 0, 0, 7.5, 7.5, 0, 0, 0, 0, 0, 0, 7.5, 7.5, 0, 0, 7.5, 0, 0, 0, 0, 0, 0, 7.5, 0, 0, 0, 0, 0, 7.5, 0, 0, 0, 0, 7.5, 0, 0, 0, 0, 0, 0, 0, 0, 0, 0, 0, 0, 0, 0, 7.5, 7.5, 7.5, 7.5, 0, 0, 0, 0, 0, 0, 0, 0, 7.5, 0, 0, 0, 7.5, 0, 7.5, 0, 0, 0, 0, 0, 0, 0, 0, 0, 7.5, 0, 0, 0, 0, 0, 0, 0, 0, 0, 7.5, 7.5, 0, 0, 0, 0, 0, 7.5, 0, 0, 0, 7.5, 0, 0, 0, 0, 0, 7.5, 7.5, 0, 0, 0, 0, 0, 0, 7.5, 7.5, 0, 0, 7.5, 0, 0, 0, 0, 0, 0, 7.5, 0, 0, 0, 0, 0, 7.5, 0, 0, 0, 0, 7.5, 0, 0, 0, 0, 0, 0, 0, 0, 0, 0, 0, 0, 0, 0, 7.5, 7.5, 7.5, 7.5, 0, 0, 0, 0, 0, 0, 0, 0, 7.5, 0, 0, 0, 7.5, 0, 7.5, 0, 0, 0, 0, 0, 0, 0, 0, 0, 7.5, 0, 0, 0, 0, 0, 0, 0, 0, 0, 7.5, 7.5, 0, 0, 0, 0, 0, 7.5, 0, 0, 0, 7.5, 0, 0, 0, 0, 0, 7.5, 7.5, 0, 0, 0, 0, 0, 0, 7.5, 7.5, 0, 0, 7.5, 0, 0, 0, 0, 0, 0, 7.5, 0, 0, 0, 0, 0, 7.5, 0, 0, 0, 0, 7.5, 0, 0, 0, 0, 0, 0, 0, 0, 0, 0, 0, 0, 0, 0, 7.5, 7.5, 7.5, 7.5, 0, 0, 0, 0, 0, 0, 0, 0, 7.5, 0, 0, 0, 7.5, 0, 7.5, 0, 0, 0, 0, 0, 0, 0, 0, 0, 7.5, 0, 0, 0, 0, 0, 0, 0, 0, 0, 7.5, 7.5, 0, 0, 0, 0, 0, 7.5, 0, 0, 0, 7.5, 0, 0, 0, 0, 0, 7.5, 7.5, 0, 0, 0, 0, 0, 0, 7.5, 7.5, 0, 0, 7.5, 0, 0, 0, 0, 0, 0, 7.5, 0, 0, 0, 0, 0, 7.5, 0, 0, 0, 0, 7.5, 0, 0, 0, 0, 0, 0, 0, 0, 0, 0, 0, 0, 0, 0, 7.5, 7.5, 7.5, 7.5, 0, 0, 0, 0, 0, 0, 0, 0, 7.5, 0, 0, 0, 7.5, 0, 7.5, 0, 0, 0, 0, 0, 0, 0, 0, 0, 7.5, 0, 0, 0, 0, 0, 0, 0, 0, 0, 7.5, 7.5, 0, 0, 0, 0, 0, 7.5, 0, 0, 0, 7.5, 0, 0, 0, 0, 0, 7.5, 7.5, 0, 0, 0, 0, 0, 0, 7.5, 7.5, 0, 0, 7.5, 0, 0, 0, 0, 0, 0, 7.5, 0, 0, 0, 0, 0, 7.5, 0, 0, 0, 0, 7.5, 0, 0, 0, 0, 0, 0, 0, 0, 0, 0, 0, 0, 0, 0, 7.5, 7.5, 7.5, 7.5, 0, 0, 0, 0, 0, 0, 0, 0, 7.5, 0, 0, 0, 7.5, 0, 7.5, 0, 0, 0, 0, 0, 0, 0, 0, 0, 7.5, 0, 0, 0, 0, 0, 0, 0, 0, 0, 7.5, 7.5, 0, 0, 0, 0, 0, 7.5, 0, 0, 0, 7.5, 0, 0, 0, 0, 0, 7.5, 7.5, 0, 0, 0, 0, 0, 0, 7.5, 7.5, 0, 0, 7.5, 0, 0, 0, 0, 0, 0, 7.5, 0, 0, 0, 0, 0, 7.5, 0, 0, 0, 0, 7.5, 0, 0, 0, 0, 0, 0, 0, 0, 0, 0, 0, 0, 0, 0, 7.5, 7.5, 7.5, 7.5, 0, 0, 0, 0, 0, 0, 0, 0, 7.5, 0, 0, 0, 7.5, 0, 7.5, 0, 0, 0, 0, 0, 0, 0, 0, 0, 7.5, 0, 0, 0, 0, 0, 0, 0, 0, 0, 7.5, 7.5, 0, 0, 0, 0, 0, 7.5, 0, 0, 0, 7.5, 0, 0, 0, 0, 0, 7.5, 7.5, 0, 0, 0, 0, 0, 0, 7.5, 7.5, 0, 0, 7.5, 0, 0, 0, 0, 0, 0, 7.5, 0, 0, 0, 0, 0, 7.5, 0, 0, 0, 0, 7.5, 0, 0, 0, 0, 0, 0, 0, 0, 0, 0, 0, 0, 0, 0, 7.5, 7.5, 7.5, 7.5, 0, 0, 0, 0, 0, 0, 0, 0, 7.5, 0, 0, 0, 7.5, 0, 7.5, 0, 0, 0, 0, 0, 0, 0, 0, 0, 7.5, 0, 0, 0, 0, 0, 0, 0, 0, 0, 7.5, 7.5, 0, 0, 0, 7.5, 7.5, 0.0, 7.5, 7.5, 7.5, 0.0, 7.5, 7.5, 7.5, 7.5, 7.5, 0.0, 0.0, 7.5, 7.5, 7.5, 7.5, 7.5, 7.5, 0.0, 0.0, 7.5, 7.5, 0.0, 7.5, 7.5, 7.5, 7.5, 7.5, 7.5, 0.0, 7.5, 7.5, 7.5, 7.5, 7.5, 0.0, 7.5, 7.5, 7.5, 7.5, 0.0, 7.5, 7.5, 7.5, 7.5, 7.5, 7.5, 7.5, 7.5, 7.5, 7.5, 7.5, 7.5, 7.5, 7.5, 0.0, 0.0, 0.0, 0.0, 7.5, 7.5, 7.5, 7.5, 7.5, 7.5, 7.5, 7.5, 0.0, 7.5, 7.5, 7.5, 0.0, 7.5, 0.0, 7.5, 7.5, 7.5, 7.5, 7.5, 7.5, 7.5, 7.5, 7.5, 0.0, 7.5, 7.5, 7.5, 7.5, 7.5, 7.5, 7.5, 7.5, 7.5, 0.0, 0.0, 7.5, 7.5, 7.5, 0, 0, 7.5, 0, 0, 0, 7.5, 0, 0, 0, 0, 0, 7.5, 7.5, 0, 0, 0, 0, 0, 0, 7.5, 7.5, 0, 0, 7.5, 0, 0, 0, 0, 0, 0, 7.5, 0, 0, 0, 0, 0, 7.5, 0, 0, 0, 0, 7.5, 0, 0, 0, 0, 0, 0, 0, 0, 0, 0, 0, 0, 0, 0, 7.5, 7.5, 7.5, 7.5, 0, 0, 0, 0, 0, 0, 0, 0, 7.5, 0, 0, 0, 7.5, 0, 7.5, 0, 0, 0, 0, 0, 0, 0, 0, 0, 7.5, 0, 0, 0, 0, 0, 0, 0, 0, 0, 7.5, 7.5, 0, 0, 0, 0, 0, 7.5, 0, 0, 0, 7.5, 0, 0, 0, 0, 0, 7.5, 7.5, 0, 0, 0, 0, 0, 0, 7.5, 7.5, 0, 0, 7.5, 0, 0, 0, 0, 0, 0, 7.5, 0, 0, 0, 0, 0, 7.5, 0, 0, 0, 0, 7.5, 0, 0, 0, 0, 0, 0, 0, 0, 0, 0, 0, 0, 0, 0, 7.5, 7.5, 7.5, 7.5, 0, 0, 0, 0, 0, 0, 0, 0, 7.5, 0, 0, 0, 7.5, 0, 7.5, 0, 0, 0, 0, 0, 0, 0, 0, 0, 7.5, 0, 0, 0, 0, 0, 0, 0, 0, 0, 7.5, 7.5, 0, 0, 0, 0, 0, 7.5, 0, 0, 0, 7.5, 0, 0, 0, 0, 0, 7.5, 7.5, 0, 0, 0, 0, 0, 0, 7.5, 7.5, 0, 0, 7.5, 0, 0, 0, 0, 0, 0, 7.5, 0, 0, 0, 0, 0, 7.5, 0, 0, 0, 0, 7.5, 0, 0, 0, 0, 0, 0, 0, 0, 0, 0, 0, 0, 0, 0, 7.5, 7.5, 7.5, 7.5, 0, 0, 0, 0, 0, 0, 0, 0, 7.5, 0, 0, 0, 7.5, 0, 7.5, 0, 0, 0, 0, 0, 0, 0, 0, 0, 7.5, 0, 0, 0, 0, 0, 0, 0, 0, 0, 7.5, 7.5, 0, 0, 0, 0, 0, 7.5, 0, 0, 0, 7.5, 0, 0, 0, 0, 0, 7.5, 7.5, 0, 0, 0, 0, 0, 0, 7.5, 7.5, 0, 0, 7.5, 0, 0, 0, 0, 0, 0, 7.5, 0, 0, 0, 0, 0, 7.5, 0, 0, 0, 0, 7.5, 0, 0, 0, 0, 0, 0, 0, 0, 0, 0, 0, 0, 0, 0, 7.5, 7.5, 7.5, 7.5, 0, 0, 0, 0, 0, 0, 0, 0, 7.5, 0, 0, 0, 7.5, 0, 7.5, 0, 0, 0, 0, 0, 0, 0, 0, 0, 7.5, 0, 0, 0, 0, 0, 0, 0, 0, 0, 7.5, 7.5, 0, 0, 0, 0, 0, 7.5, 0, 0, 0, 7.5, 0, 0, 0, 0, 0, 7.5, 7.5, 0, 0, 0, 0, 0, 0, 7.5, 7.5, 0, 0, 7.5, 0, 0, 0, 0, 0, 0, 7.5, 0, 0, 0, 0, 0, 7.5, 0, 0, 0, 0, 7.5, 0, 0, 0, 0, 0, 0, 0, 0, 0, 0, 0, 0, 0, 0, 7.5, 7.5, 7.5, 7.5, 0, 0, 0, 0, 0, 0, 0, 0, 7.5, 0, 0, 0, 7.5, 0, 7.5, 0, 0, 0, 0, 0, 0, 0, 0, 0, 7.5, 0, 0, 0, 0, 0, 0, 0, 0, 0, 7.5, 7.5, 0, 0, 0, 0, 0, 7.5, 0, 0, 0, 7.5, 0, 0, 0, 0, 0, 7.5, 7.5, 0, 0, 0, 0, 0, 0, 7.5, 7.5, 0, 0, 7.5, 0, 0, 0, 0, 0, 0, 7.5, 0, 0, 0, 0, 0, 7.5, 0, 0, 0, 0, 7.5, 0, 0, 0, 0, 0, 0, 0, 0, 0, 0, 0, 0, 0, 0, 7.5, 7.5, 7.5, 7.5, 0, 0, 0, 0, 0, 0, 0, 0, 7.5, 0, 0, 0, 7.5, 0, 7.5, 0, 0, 0, 0, 0, 0, 0, 0, 0, 7.5, 0, 0, 0, 0, 0, 0, 0, 0, 0, 7.5, 7.5, 0, 0, 0, 0, 0, 7.5, 0, 0, 0, 7.5, 0, 0, 0, 0, 0, 7.5, 7.5, 0, 0, 0, 0, 0, 0, 7.5, 7.5, 0, 0, 7.5, 0, 0, 0, 0, 0, 0, 7.5, 0, 0, 0, 0, 0, 7.5, 0, 0, 0, 0, 7.5, 0, 0, 0, 0, 0, 0, 0, 0, 0, 0, 0, 0, 0, 0, 7.5, 7.5, 7.5, 7.5, 0, 0, 0, 0, 0, 0, 0, 0, 7.5, 0, 0, 0, 7.5, 0, 7.5, 0, 0, 0, 0, 0, 0, 0, 0, 0, 7.5, 0, 0, 0, 0, 0, 0, 0, 0, 0, 7.5, 7.5, 0, 0, 0, 0, 0, 7.5, 0, 0, 0, 7.5, 0, 0, 0, 0, 0, 7.5, 7.5, 0, 0, 0, 0, 0, 0, 7.5, 7.5, 0, 0, 7.5, 0, 0, 0, 0, 0, 0, 7.5, 0, 0, 0, 0, 0, 7.5, 0, 0, 0, 0, 7.5, 0, 0, 0, 0, 0, 0, 0, 0, 0, 0, 0, 0, 0, 0, 7.5, 7.5, 7.5, 7.5, 0, 0, 0, 0, 0, 0, 0, 0, 7.5, 0, 0, 0, 7.5, 0, 7.5, 0, 0, 0, 0, 0, 0, 0, 0, 0, 7.5, 0, 0, 0, 0, 0, 0, 0, 0, 0, 7.5, 7.5, 0, 0, 0, 0, 0, 7.5, 0, 0, 0, 7.5, 0, 0, 0, 0, 0, 7.5, 7.5, 0, 0, 0, 0, 0, 0, 7.5, 7.5, 0, 0, 7.5, 0, 0, 0, 0, 0, 0, 7.5, 0, 0, 0, 0, 0, 7.5, 0, 0, 0, 0, 7.5, 0, 0, 0, 0, 0, 0, 0, 0, 0, 0, 0, 0, 0, 0, 7.5, 7.5, 7.5, 7.5, 0, 0, 0, 0, 0, 0, 0, 0, 7.5, 0, 0, 0, 7.5, 0, 7.5, 0, 0, 0, 0, 0, 0, 0, 0, 0, 7.5, 0, 0, 0, 0, 0, 0, 0, 0, 0, 7.5, 7.5, 0, 0, 0, 7.5, 7.5, 0.0, 7.5, 7.5, 7.5, 0.0, 7.5, 7.5, 7.5, 7.5, 7.5, 0.0, 0.0, 7.5, 7.5, 7.5, 7.5, 7.5, 7.5, 0.0, 0.0, 7.5, 7.5, 0.0, 7.5, 7.5, 7.5, 7.5, 7.5, 7.5, 0.0, 7.5, 7.5, 7.5, 7.5, 7.5, 0.0, 7.5, 7.5, 7.5, 7.5, 0.0, 7.5, 7.5, 7.5, 7.5, 7.5, 7.5, 7.5, 7.5, 7.5, 7.5, 7.5, 7.5, 7.5, 7.5, 0.0, 0.0, 0.0, 0.0, 7.5, 7.5, 7.5, 7.5, 7.5, 7.5, 7.5, 7.5, 0.0, 7.5, 7.5, 7.5, 0.0, 7.5, 0.0, 7.5, 7.5, 7.5, 7.5, 7.5, 7.5, 7.5, 7.5, 7.5, 0.0, 7.5, 7.5, 7.5, 7.5, 7.5, 7.5, 7.5, 7.5, 7.5, 0.0, 0.0, 7.5, 7.5, 7.5, 7.5, 7.5, 0.0, 7.5, 7.5, 7.5, 0.0, 7.5, 7.5, 7.5, 7.5, 7.5, 0.0, 0.0, 7.5, 7.5, 7.5, 7.5, 7.5, 7.5, 0.0, 0.0, 7.5, 7.5, 0.0, 7.5, 7.5, 7.5, 7.5, 7.5, 7.5, 0.0, 7.5, 7.5, 7.5, 7.5, 7.5, 0.0, 7.5, 7.5, 7.5, 7.5, 0.0, 7.5, 7.5, 7.5, 7.5, 7.5, 7.5, 7.5, 7.5, 7.5, 7.5, 7.5, 7.5, 7.5, 7.5, 0.0, 0.0, 0.0, 0.0, 7.5, 7.5, 7.5, 7.5, 7.5, 7.5, 7.5, 7.5, 0.0, 7.5, 7.5, 7.5, 0.0, 7.5, 0.0, 7.5, 7.5, 7.5, 7.5, 7.5, 7.5, 7.5, 7.5, 7.5, 0.0, 7.5, 7.5, 7.5, 7.5, 7.5, 7.5, 7.5, 7.5, 7.5, 0.0, 0.0, 7.5, 7.5, 7.5, 0, 0, 7.5, 0, 0, 0, 7.5, 0, 0, 0, 0, 0, 7.5, 7.5, 0, 0, 0, 0, 0, 0, 7.5, 7.5, 0, 0, 7.5, 0, 0, 0, 0, 0, 0, 7.5, 0, 0, 0, 0, 0, 7.5, 0, 0, 0, 0, 7.5, 0, 0, 0, 0, 0, 0, 0, 0, 0, 0, 0, 0, 0, 0, 7.5, 7.5, 7.5, 7.5, 0, 0, 0, 0, 0, 0, 0, 0, 7.5, 0, 0, 0, 7.5, 0, 7.5, 0, 0, 0, 0, 0, 0, 0, 0, 0, 7.5, 0, 0, 0, 0, 0, 0, 0, 0, 0, 7.5, 7.5, 0, 0, 0, 0, 0, 7.5, 0, 0, 0, 7.5, 0, 0, 0, 0, 0, 7.5, 7.5, 0, 0, 0, 0, 0, 0, 7.5, 7.5, 0, 0, 7.5, 0, 0, 0, 0, 0, 0, 7.5, 0, 0, 0, 0, 0, 7.5, 0, 0, 0, 0, 7.5, 0, 0, 0, 0, 0, 0, 0, 0, 0, 0, 0, 0, 0, 0, 7.5, 7.5, 7.5, 7.5, 0, 0, 0, 0, 0, 0, 0, 0, 7.5, 0, 0, 0, 7.5, 0, 7.5, 0, 0, 0, 0, 0, 0, 0, 0, 0, 7.5, 0, 0, 0, 0, 0, 0, 0, 0, 0, 7.5, 7.5, 0, 0, 0, 0, 0, 7.5, 0, 0, 0, 7.5, 0, 0, 0, 0, 0, 7.5, 7.5, 0, 0, 0, 0, 0, 0, 7.5, 7.5, 0, 0, 7.5, 0, 0, 0, 0, 0, 0, 7.5, 0, 0, 0, 0, 0, 7.5, 0, 0, 0, 0, 7.5, 0, 0, 0, 0, 0, 0, 0, 0, 0, 0, 0, 0, 0, 0, 7.5, 7.5, 7.5, 7.5, 0, 0, 0, 0, 0, 0, 0, 0, 7.5, 0, 0, 0, 7.5, 0, 7.5, 0, 0, 0, 0, 0, 0, 0, 0, 0, 7.5, 0, 0, 0, 0, 0, 0, 0, 0, 0, 7.5, 7.5, 0, 0, 0]);
